nServices=10;
nDrivers=15;
nBuses=15;
maxBuses=12;
startingTime=[92 154 25 141 6 128 110 118 161 179];
durationTime=[29 30 24 24 29 25 13 22 15 30];
durationDist=[58 50 57 33 31 31 52 47 51 51];
passengers=[12 20 8 24 22 21 5 3 16 10];
capacity=[16 28 16 17 13 29 11 25 11 21 28 22 26 30 13];
costTime=[6 8 10 6 10 10 9 10 6 9 9 9 7 8 9];
costDist=[5 2 5 6 2 5 6 5 2 4 4 5 5 2 6];
maxTime=[53 45 29 44 34 53 39 50 29 42 45 36 40 48 58];
costBM=[8 5 6 5 7 6 5 5 5 7 8 6 7 8 8];
costEM=[12 10 10 8 11 11 8 12 8 8 11 8 10 12 12];
BM=[15 16 14 15 19 13 13 18 10 15 17 17 14 19 11];
